c "654811.clq"
p edge 100 1344
e 1 17
e 2 17
e 2 18
e 2 19
e 2 21
e 2 22
e 2 25
e 2 26
e 2 27
e 2 28
e 2 29
e 2 30
e 2 31
e 2 33
e 2 34
e 2 37
e 2 40
e 2 57
e 2 58
e 2 61
e 2 74
e 2 98
e 3 17
e 3 18
e 3 19
e 3 21
e 3 22
e 3 52
e 3 58
e 3 62
e 4 17
e 4 18
e 4 19
e 4 20
e 4 21
e 4 22
e 4 23
e 4 24
e 4 25
e 4 26
e 4 31
e 4 33
e 4 36
e 4 37
e 4 42
e 4 44
e 4 53
e 4 57
e 4 64
e 4 65
e 4 69
e 4 72
e 4 75
e 4 76
e 4 79
e 4 80
e 5 17
e 5 18
e 5 19
e 5 20
e 5 22
e 5 23
e 5 25
e 5 26
e 5 27
e 5 28
e 5 30
e 5 34
e 5 36
e 5 42
e 5 46
e 5 55
e 5 57
e 5 67
e 5 71
e 5 95
e 6 17
e 6 18
e 6 19
e 6 20
e 6 21
e 6 22
e 6 23
e 6 24
e 6 25
e 6 28
e 6 30
e 6 31
e 6 32
e 6 35
e 6 37
e 6 41
e 6 43
e 6 45
e 6 47
e 6 50
e 6 51
e 6 53
e 6 57
e 6 62
e 6 63
e 6 66
e 6 71
e 6 76
e 6 82
e 6 83
e 6 85
e 6 86
e 6 90
e 6 91
e 6 96
e 7 17
e 7 18
e 7 19
e 7 20
e 7 22
e 7 23
e 7 25
e 7 27
e 7 28
e 7 29
e 7 30
e 7 32
e 7 33
e 7 34
e 7 39
e 7 41
e 7 43
e 7 50
e 7 51
e 7 52
e 7 60
e 7 61
e 7 69
e 7 71
e 7 72
e 7 73
e 7 75
e 7 81
e 7 82
e 7 99
e 8 17
e 8 18
e 8 19
e 8 20
e 8 21
e 8 23
e 8 24
e 8 25
e 8 35
e 8 38
e 8 40
e 8 46
e 8 47
e 8 51
e 8 52
e 8 59
e 8 66
e 8 85
e 8 91
e 8 92
e 8 97
e 8 99
e 9 17
e 9 18
e 9 19
e 9 20
e 9 21
e 9 24
e 9 25
e 9 27
e 9 31
e 9 35
e 9 37
e 9 47
e 9 52
e 9 54
e 9 55
e 9 59
e 9 71
e 9 81
e 9 91
e 9 96
e 9 98
e 9 100
e 10 17
e 10 18
e 10 20
e 10 21
e 10 24
e 10 29
e 10 31
e 10 35
e 10 36
e 10 37
e 10 45
e 10 46
e 10 49
e 10 50
e 10 56
e 10 64
e 10 72
e 10 77
e 10 95
e 11 17
e 11 18
e 11 19
e 11 20
e 11 21
e 11 23
e 11 25
e 11 26
e 11 28
e 11 31
e 11 35
e 11 37
e 11 40
e 11 41
e 11 43
e 11 44
e 11 48
e 11 51
e 11 53
e 11 57
e 11 60
e 11 74
e 11 78
e 11 90
e 12 17
e 12 18
e 12 19
e 12 20
e 12 21
e 12 22
e 12 23
e 12 24
e 12 25
e 12 26
e 12 27
e 12 30
e 12 31
e 12 32
e 12 33
e 12 34
e 12 45
e 12 47
e 12 49
e 12 51
e 12 55
e 12 57
e 12 60
e 12 61
e 12 62
e 12 63
e 12 64
e 12 65
e 12 66
e 12 68
e 12 69
e 12 70
e 12 73
e 12 74
e 12 77
e 12 81
e 12 82
e 12 83
e 12 84
e 12 85
e 12 89
e 12 92
e 12 94
e 12 96
e 13 17
e 13 18
e 13 19
e 13 20
e 13 21
e 13 22
e 13 23
e 13 24
e 13 26
e 13 27
e 13 28
e 13 29
e 13 31
e 13 36
e 13 38
e 13 39
e 13 44
e 13 48
e 13 50
e 13 58
e 13 59
e 13 60
e 13 62
e 13 73
e 13 75
e 13 80
e 13 85
e 13 88
e 13 90
e 13 92
e 13 94
e 13 96
e 14 17
e 14 18
e 14 19
e 14 20
e 14 21
e 14 22
e 14 23
e 14 24
e 14 27
e 14 29
e 14 30
e 14 32
e 14 33
e 14 35
e 14 39
e 14 43
e 14 48
e 14 49
e 14 50
e 14 52
e 14 67
e 14 69
e 14 70
e 14 74
e 14 76
e 14 78
e 14 87
e 14 90
e 14 93
e 14 98
e 14 100
e 15 17
e 15 18
e 15 19
e 15 20
e 15 22
e 15 32
e 15 49
e 15 51
e 15 55
e 15 57
e 15 60
e 15 70
e 15 77
e 15 80
e 15 81
e 15 85
e 15 90
e 16 17
e 16 18
e 16 19
e 16 20
e 16 21
e 16 22
e 16 23
e 16 24
e 16 25
e 16 26
e 16 28
e 16 29
e 16 30
e 16 31
e 16 33
e 16 34
e 16 35
e 16 36
e 16 37
e 16 39
e 16 40
e 16 41
e 16 42
e 16 45
e 16 46
e 16 47
e 16 49
e 16 51
e 16 52
e 16 54
e 16 56
e 16 57
e 16 60
e 16 62
e 16 63
e 16 64
e 16 66
e 16 68
e 16 71
e 16 73
e 16 79
e 16 83
e 16 87
e 16 91
e 17 18
e 17 19
e 17 20
e 17 21
e 17 22
e 17 23
e 17 24
e 17 25
e 17 26
e 17 27
e 17 28
e 17 29
e 17 30
e 17 31
e 17 32
e 17 33
e 17 34
e 17 35
e 17 37
e 17 38
e 17 39
e 17 40
e 17 41
e 17 42
e 17 43
e 17 44
e 17 45
e 17 46
e 17 47
e 17 48
e 17 50
e 17 51
e 17 52
e 17 54
e 17 55
e 17 59
e 17 60
e 17 61
e 17 63
e 17 65
e 17 66
e 17 67
e 17 70
e 17 74
e 17 75
e 17 76
e 17 77
e 17 79
e 17 80
e 17 83
e 17 84
e 17 85
e 17 87
e 17 89
e 17 90
e 17 91
e 17 93
e 17 96
e 17 97
e 17 99
e 17 100
e 18 19
e 18 20
e 18 21
e 18 22
e 18 23
e 18 24
e 18 25
e 18 26
e 18 27
e 18 28
e 18 30
e 18 32
e 18 34
e 18 35
e 18 36
e 18 37
e 18 39
e 18 40
e 18 41
e 18 42
e 18 44
e 18 45
e 18 47
e 18 51
e 18 52
e 18 59
e 18 60
e 18 63
e 18 64
e 18 65
e 18 68
e 18 71
e 18 74
e 18 76
e 18 77
e 18 79
e 18 81
e 18 83
e 18 87
e 18 89
e 18 94
e 18 95
e 18 96
e 19 20
e 19 21
e 19 22
e 19 23
e 19 24
e 19 25
e 19 26
e 19 27
e 19 28
e 19 29
e 19 30
e 19 32
e 19 33
e 19 36
e 19 37
e 19 38
e 19 39
e 19 40
e 19 41
e 19 43
e 19 46
e 19 49
e 19 50
e 19 53
e 19 54
e 19 55
e 19 56
e 19 57
e 19 58
e 19 59
e 19 60
e 19 61
e 19 63
e 19 67
e 19 69
e 19 71
e 19 72
e 19 76
e 19 77
e 19 79
e 19 85
e 19 86
e 19 89
e 19 91
e 19 92
e 19 93
e 19 96
e 20 21
e 20 22
e 20 23
e 20 24
e 20 25
e 20 26
e 20 27
e 20 28
e 20 29
e 20 30
e 20 31
e 20 32
e 20 33
e 20 34
e 20 37
e 20 39
e 20 40
e 20 42
e 20 43
e 20 44
e 20 48
e 20 50
e 20 53
e 20 54
e 20 56
e 20 67
e 20 68
e 20 70
e 20 71
e 20 73
e 20 77
e 20 78
e 20 81
e 20 83
e 20 86
e 20 87
e 20 91
e 20 93
e 20 95
e 20 97
e 20 98
e 20 99
e 21 22
e 21 23
e 21 24
e 21 26
e 21 29
e 21 33
e 21 34
e 21 35
e 21 38
e 21 39
e 21 41
e 21 42
e 21 44
e 21 45
e 21 47
e 21 50
e 21 53
e 21 54
e 21 56
e 21 58
e 21 59
e 21 60
e 21 64
e 21 68
e 21 69
e 21 76
e 21 78
e 21 80
e 21 83
e 21 84
e 21 88
e 21 95
e 21 97
e 21 99
e 21 100
e 22 23
e 22 24
e 22 25
e 22 26
e 22 27
e 22 28
e 22 29
e 22 30
e 22 32
e 22 35
e 22 36
e 22 38
e 22 39
e 22 40
e 22 46
e 22 47
e 22 48
e 22 49
e 22 50
e 22 54
e 22 59
e 22 62
e 22 63
e 22 66
e 22 67
e 22 69
e 22 71
e 22 74
e 22 77
e 22 83
e 22 84
e 22 87
e 22 89
e 22 92
e 22 98
e 23 24
e 23 26
e 23 27
e 23 28
e 23 29
e 23 31
e 23 32
e 23 33
e 23 34
e 23 35
e 23 37
e 23 38
e 23 41
e 23 42
e 23 46
e 23 47
e 23 48
e 23 50
e 23 51
e 23 52
e 23 53
e 23 54
e 23 58
e 23 65
e 23 74
e 23 76
e 23 78
e 23 79
e 23 80
e 23 82
e 23 84
e 23 87
e 23 92
e 23 93
e 23 94
e 24 25
e 24 26
e 24 27
e 24 28
e 24 29
e 24 31
e 24 33
e 24 34
e 24 35
e 24 36
e 24 38
e 24 39
e 24 41
e 24 43
e 24 44
e 24 45
e 24 46
e 24 51
e 24 55
e 24 56
e 24 63
e 24 68
e 24 71
e 24 72
e 24 75
e 24 77
e 24 79
e 24 84
e 24 85
e 24 87
e 24 88
e 24 90
e 24 93
e 24 97
e 25 26
e 25 27
e 25 28
e 25 29
e 25 30
e 25 31
e 25 32
e 25 36
e 25 37
e 25 38
e 25 39
e 25 40
e 25 42
e 25 43
e 25 46
e 25 50
e 25 54
e 25 55
e 25 56
e 25 59
e 25 62
e 25 64
e 25 69
e 25 71
e 25 72
e 25 73
e 25 75
e 25 78
e 25 82
e 25 83
e 25 84
e 25 86
e 25 93
e 25 94
e 25 96
e 25 97
e 25 100
e 26 27
e 26 28
e 26 29
e 26 30
e 26 36
e 26 37
e 26 38
e 26 41
e 26 43
e 26 44
e 26 47
e 26 51
e 26 52
e 26 54
e 26 56
e 26 61
e 26 62
e 26 72
e 26 73
e 26 74
e 26 75
e 26 76
e 26 85
e 26 86
e 26 87
e 26 88
e 26 90
e 26 92
e 26 93
e 26 94
e 27 30
e 27 32
e 27 33
e 27 34
e 27 35
e 27 41
e 27 42
e 27 44
e 27 49
e 27 53
e 27 58
e 27 59
e 27 61
e 27 62
e 27 63
e 27 66
e 27 70
e 27 72
e 27 74
e 27 75
e 27 80
e 27 81
e 27 85
e 27 87
e 27 88
e 27 94
e 27 97
e 28 29
e 28 30
e 28 31
e 28 33
e 28 34
e 28 36
e 28 38
e 28 39
e 28 40
e 28 42
e 28 45
e 28 47
e 28 50
e 28 52
e 28 53
e 28 55
e 28 56
e 28 57
e 28 60
e 28 65
e 28 71
e 28 75
e 28 78
e 28 81
e 28 99
e 28 100
e 29 31
e 29 32
e 29 33
e 29 34
e 29 35
e 29 36
e 29 44
e 29 45
e 29 47
e 29 49
e 29 55
e 29 59
e 29 60
e 29 61
e 29 64
e 29 72
e 29 75
e 29 82
e 29 86
e 29 92
e 29 97
e 29 100
e 30 32
e 30 33
e 30 36
e 30 37
e 30 38
e 30 41
e 30 43
e 30 48
e 30 49
e 30 54
e 30 56
e 30 57
e 30 58
e 30 61
e 30 66
e 30 67
e 30 68
e 30 82
e 30 83
e 30 91
e 30 93
e 30 94
e 30 99
e 31 32
e 31 34
e 31 36
e 31 38
e 31 39
e 31 40
e 31 41
e 31 42
e 31 45
e 31 46
e 31 47
e 31 48
e 31 52
e 31 53
e 31 54
e 31 56
e 31 57
e 31 58
e 31 61
e 31 62
e 31 64
e 31 65
e 31 66
e 31 79
e 31 80
e 31 81
e 31 88
e 32 34
e 32 37
e 32 38
e 32 39
e 32 43
e 32 45
e 32 46
e 32 48
e 32 52
e 32 56
e 32 58
e 32 61
e 32 63
e 32 66
e 32 67
e 32 75
e 32 78
e 32 80
e 32 81
e 32 94
e 32 98
e 33 35
e 33 36
e 33 38
e 33 39
e 33 42
e 33 44
e 33 45
e 33 48
e 33 49
e 33 50
e 33 53
e 33 63
e 33 64
e 33 69
e 33 70
e 33 72
e 33 90
e 33 93
e 34 40
e 34 41
e 34 42
e 34 46
e 34 56
e 34 67
e 34 70
e 34 77
e 34 80
e 35 42
e 35 45
e 35 48
e 35 64
e 35 67
e 35 68
e 35 72
e 35 76
e 35 81
e 35 83
e 35 89
e 35 90
e 35 93
e 35 98
e 35 99
e 36 38
e 36 40
e 36 43
e 36 45
e 36 49
e 36 52
e 36 62
e 36 65
e 36 68
e 36 71
e 36 73
e 36 74
e 36 76
e 36 79
e 36 84
e 36 88
e 36 89
e 36 94
e 36 96
e 36 100
e 37 40
e 37 41
e 37 43
e 37 44
e 37 47
e 37 49
e 37 52
e 37 53
e 37 63
e 37 64
e 37 66
e 37 71
e 37 73
e 37 77
e 37 78
e 37 81
e 37 82
e 37 87
e 37 89
e 37 90
e 37 95
e 37 97
e 37 100
e 38 44
e 38 46
e 38 49
e 38 53
e 38 57
e 38 59
e 38 60
e 38 61
e 38 63
e 38 70
e 39 40
e 39 46
e 39 47
e 39 50
e 39 51
e 39 53
e 39 55
e 39 68
e 39 74
e 39 85
e 39 91
e 39 95
e 39 98
e 40 42
e 40 44
e 40 48
e 40 56
e 40 58
e 40 62
e 40 65
e 40 68
e 40 79
e 40 80
e 40 82
e 40 84
e 40 91
e 40 98
e 40 100
e 41 43
e 41 55
e 41 57
e 41 60
e 41 65
e 41 67
e 41 76
e 41 81
e 41 82
e 41 88
e 41 92
e 42 43
e 42 45
e 42 46
e 42 48
e 42 54
e 42 55
e 42 59
e 42 65
e 42 67
e 42 73
e 42 75
e 42 80
e 42 82
e 42 89
e 42 92
e 42 94
e 42 95
e 43 44
e 43 50
e 43 59
e 43 61
e 43 64
e 43 66
e 43 76
e 43 79
e 43 96
e 44 48
e 44 49
e 44 66
e 44 69
e 44 77
e 44 94
e 44 98
e 44 99
e 45 51
e 45 61
e 45 62
e 45 64
e 45 66
e 45 78
e 45 80
e 45 81
e 45 84
e 45 88
e 45 99
e 46 48
e 46 51
e 46 52
e 46 53
e 46 64
e 46 75
e 46 77
e 46 84
e 46 90
e 46 92
e 46 94
e 46 96
e 46 97
e 47 49
e 47 51
e 47 66
e 47 75
e 47 76
e 47 82
e 47 86
e 47 87
e 47 96
e 47 99
e 48 56
e 48 58
e 48 60
e 48 68
e 48 72
e 48 88
e 49 55
e 49 58
e 49 65
e 49 70
e 49 72
e 49 79
e 49 82
e 49 85
e 50 54
e 50 55
e 50 58
e 50 59
e 50 62
e 50 67
e 50 69
e 50 73
e 50 74
e 50 76
e 50 78
e 50 89
e 50 90
e 50 91
e 50 93
e 51 53
e 51 55
e 51 56
e 51 61
e 51 65
e 51 82
e 51 84
e 51 89
e 52 54
e 52 60
e 52 62
e 52 63
e 52 68
e 52 70
e 52 72
e 52 79
e 52 84
e 52 89
e 52 93
e 52 100
e 53 54
e 53 58
e 53 62
e 53 63
e 53 68
e 53 86
e 53 88
e 53 97
e 54 74
e 54 80
e 54 83
e 54 85
e 54 92
e 55 57
e 55 65
e 55 71
e 55 72
e 55 77
e 55 82
e 55 88
e 55 96
e 55 99
e 56 57
e 56 65
e 56 67
e 56 69
e 56 70
e 56 78
e 56 88
e 56 90
e 56 93
e 56 100
e 57 58
e 57 59
e 57 67
e 57 68
e 57 74
e 57 83
e 57 95
e 58 63
e 58 64
e 58 66
e 58 68
e 58 69
e 58 89
e 58 90
e 58 92
e 58 96
e 59 61
e 59 70
e 59 73
e 59 78
e 59 79
e 59 86
e 59 95
e 59 96
e 59 100
e 60 75
e 60 76
e 60 78
e 60 99
e 61 70
e 61 86
e 62 88
e 62 98
e 62 100
e 63 65
e 63 67
e 63 70
e 63 73
e 63 75
e 63 77
e 63 91
e 64 70
e 65 69
e 65 71
e 65 88
e 66 69
e 66 86
e 67 69
e 67 80
e 67 86
e 68 73
e 68 78
e 68 87
e 68 92
e 69 72
e 69 73
e 69 77
e 69 79
e 69 82
e 69 93
e 70 86
e 71 74
e 71 81
e 71 83
e 71 87
e 71 93
e 71 98
e 71 99
e 72 73
e 72 86
e 72 92
e 73 86
e 73 91
e 74 84
e 74 86
e 74 94
e 75 81
e 75 83
e 75 97
e 75 98
e 76 87
e 76 90
e 77 78
e 77 80
e 77 88
e 77 91
e 77 96
e 78 79
e 78 84
e 78 85
e 78 89
e 78 95
e 79 85
e 79 95
e 79 97
e 80 89
e 80 91
e 80 94
e 80 97
e 80 100
e 81 83
e 81 84
e 81 85
e 81 99
e 82 89
e 82 95
e 82 97
e 82 99
e 83 91
e 84 87
e 84 95
e 85 94
e 85 100
e 86 95
e 88 92
e 90 97
e 91 98
e 93 95
e 94 98
e 95 98
